p cnf 10 18
c
c s0_0 = 1
c s1_0 = 2
c ns0_0 = 3
c ns1_0 = 4
c a_0 = 5
c
c s0_1 = 6
c s1_1 = 7
c ns0_1 = 8
c ns1_1 = 9
c a_1 = 10
c
c initial state:
-1 0
-2 0
c
c final state target:
-8 0
9 0
c
c 1st unrolling:
1 -4 0
5 -4 0
-1 -5 4 0
-5 -3 0
5 3 0
c
c 2nd unrolling:
6 -9 0
10 -9 0
-6 -10 9 0
-10 -8 0
10 8 0
c
c buffer clauses:
-4 7 0
4 -7 0
-3 6 0
3 -6 0
